ML_BP                                   
   1.00000000000000     
     4.2570707070707074    0.0000000000000000    0.0000000000000010
     0.0000000000000000    3.2570707070707070    0.0000000000000000
     0.0000000000000000    0.0000000000000000   18.0000000000000071
   P 
     4
Direct
     0.9200074717303031    0.5000000012941157    0.4401576202426038
     0.4200074669818084    0.9999999987915036    0.5598423816026273
     0.5799925322730997    0.0000000011296966    0.4401576209773165
     0.0799925290148033    0.4999999987846842    0.5598423771774524
 
  0.00000000E+00  0.00000000E+00  0.00000000E+00
  0.00000000E+00  0.00000000E+00  0.00000000E+00
  0.00000000E+00  0.00000000E+00  0.00000000E+00
  0.00000000E+00  0.00000000E+00  0.00000000E+00
