SYSTEM=BP
ENCUT=500
ISMEAR=-5
#SIGMA=0.2
EDIFF=0.1E-5
PREC=Accurate
LREAL=.FALSE.
LWAVE=.FALSE.
LCHARG=.FALSE.
NPAR=4
VOSKOWN=1

EDIFFG=-0.01
IBRION=2
NSW=200
ISIF=2
POTIM=0.1

#ISPIN=2
#MAGMOM=4*0
#LORBIT=11
ISYM=0

LUSE_VDW=.TRUE.
AGGAC=0.0000
GGA=BO
PARAM1=0.1833333333
PARAM2=0.2200000000
